Version identifier: 22.1.0.0 | 2022-03-09 | 1a383f8ce
CPXPARAM_Threads                                 1
CPXPARAM_MIP_Strategy_VariableSelect             3
CPXPARAM_TimeLimit                               599.98994387599998
Tried aggregator 1 time.
MIP Presolve eliminated 423 rows and 1221 columns.
Reduced MIP has 2438 rows, 3663 columns, and 29571 nonzeros.
Reduced MIP has 3663 binaries, 0 generals, 0 SOSs, and 0 indicators.
Presolve time = 0.04 sec. (19.70 ticks)
Probing time = 0.00 sec. (3.21 ticks)
Tried aggregator 1 time.
Detecting symmetries...
Reduced MIP has 2438 rows, 3663 columns, and 29571 nonzeros.
Reduced MIP has 3663 binaries, 0 generals, 0 SOSs, and 0 indicators.
Presolve time = 0.02 sec. (18.15 ticks)
Probing time = 0.00 sec. (3.21 ticks)
Clique table members: 1621.
MIP emphasis: balance optimality and feasibility.
MIP search method: dynamic search.
Parallel mode: none, using 1 thread.
Root relaxation solution time = 0.05 sec. (36.50 ticks)

        Nodes                                         Cuts/
   Node  Left     Objective  IInf  Best Integer    Best Bound    ItCnt     Gap

      0     0    infeasible                                        852         

Root node processing (before b&c):
  Real time             =    0.21 sec. (137.71 ticks)
Sequential b&c:
  Real time             =    0.00 sec. (0.00 ticks)
                          ------------
Total (root+branch&cut) =    0.21 sec. (137.71 ticks)
Primal:	406
Dual:	406
Status:	Optimal
Time:	0.265024
Sequence:
	0
